WARNING: for repeatability, setting FPU to use double precision
============================[ Problem Statistics ]=============================
|                                                                             |
|  Number of variables:           100                                         |
|  Number of clauses:             449                                         |
|  Parse time:                   0.00 s                                       |
|  Eliminated clauses:           0.00 Mb                                      |
|  Simplification time:          0.00 s                                       |
|                                                                             |
============================[ Search Statistics ]==============================
| Conflicts |          ORIGINAL         |          LEARNT          | Progress |
|           |    Vars  Clauses Literals |    Limit  Clauses Lit/Cl |          |
===============================================================================
|       100 |      97      446     1359 |      163      100      6 |  0.010 % |
|       250 |      97      446     1359 |      179      165      6 |  0.050 % |
|       475 |      96      436     1329 |      197      139      6 |  1.011 % |
===============================================================================
restarts              : 4
conflicts             : 479            (110700 /sec)
decisions             : 605            (0.00 % random) (139820 /sec)
propagations          : 10647          (2460596 /sec)
conflict literals     : 3045           (20.43 % deleted)
Memory used           : 13.00 MB
CPU time              : 0.004327 s

SATISFIABLE
